outputs/case_115.model.txt
insurance_type_responsibility = True
broker_company_shareholding_in_insurer = 0
notary = True
guarantee_deposit_amount = 500000
broker_charge_fee = 0
minimum_guarantee_deposit = 500000
insured_email = False
broker_disclose_shareholding_info = True
insurance_policy_is_electronic = False
applicant_other_contact = False
applicant_mobile_phone = False
insured_other_contact = False
insurance_type_guarantee = True
broker = True
provide_contact_to_insurer = False
applicant_email = False
agent = False
broker_disclose_fee_standard = True
insurer_shareholding_in_broker_company = 0
insured_mobile_phone = False
broker_document_retention = True
violate_related_regulations = False
bank_approved_by_authority = False
bank_operate_as_agent = False
bank_operate_as_broker = False
bank_permission_for_agent_or_broker = False
broker_disclose_main_content_and_rights = True
broker_duty_of_care_and_fidelity = True
management_rules_set_by_authority = True
broker_exercise_fidelity = True
broker_provide_written_analysis_report_and_disclose_fee = True
broker_understand_client_info = True
violation_financial_or_business_management_rules = False
protect_senior_consumer_rights = True
approved_by_authority = True
broker_provide_written_report = True
internal_operation_rules_executed = True
broker_documents_retained = True
violate_business_management_rules = False
broker_maintain_client_interest = True
broker_exercise_duty_of_care = True
broker_obtain_contact_info_for_e_policy = True
relevant_insurance_type_compliance = True
license_and_guarantee_compliance = True
broker_internal_operation_compliance = True
authority_set_management_rules = True
broker_disclose_shareholding_info_before_contract = True
broker_duty_of_care_and_fidelity_compliance = True
broker_understand_client_and_provide_report_before_contract = True
internal_operation_rules_established = True
penalty = False
violate_financial_management_rules = False
comply_with_laws_and_regulations = True
authority_set_minimum_amount = 0
minimum_guarantee_deposit_and_insurance_amount_set_by_authority = False
license_issued = True
relevant_insurance_subscribed = True